aux_benchmarks/lp2sat/smokers_7_3_prob.lp.lp.cnf
p cnf 456 1575
21 66 0
-21 -66 0
102 -85 0
-102 85 0
-86 -102 0
-87 -102 0
-85 -22 -101 0
-85 22 0
-86 -22 -101 0
-86 22 0
-87 -22 -101 0
-87 22 0
105 -21 0
-105 21 0
250 -105 0
-250 105 0
101 -105 0
-101 105 0
106 -28 -39 0
-106 28 0
-106 39 0
251 -106 0
-251 106 0
252 -85 -106 94 0
-252 85 0
-252 106 0
-252 -94 0
253 -109 -106 94 85 0
-253 109 0
-253 106 0
-253 -94 0
-253 -85 0
254 -109 -94 -85 -106 0
-254 109 0
-254 94 0
-254 85 0
-254 106 0
255 -86 -106 95 0
-255 86 0
-255 106 0
-255 -95 0
256 -110 -106 95 86 0
-256 110 0
-256 106 0
-256 -95 0
-256 -86 0
257 -110 -95 -86 -106 0
-257 110 0
-257 95 0
-257 86 0
-257 106 0
110 -87 -106 96 0
-110 87 0
-110 106 0
-110 -96 0
107 -106 -108 0
-107 106 0
-107 108 0
103 -107 101 0
-103 107 0
-103 -101 0
258 -94 -85 -106 0
-258 94 0
-258 85 0
-258 106 0
259 -106 94 85 0
-259 106 0
-259 -94 0
-259 -85 0
260 -111 -95 -86 -106 0
-260 111 0
-260 95 0
-260 86 0
-260 106 0
261 -111 -106 95 86 0
-261 111 0
-261 106 0
-261 -95 0
-261 -86 0
113 -85 -106 94 0
-113 85 0
-113 106 0
-113 -94 0
262 -111 -86 -106 95 0
-262 111 0
-262 86 0
-262 106 0
-262 -95 0
263 -113 -95 -106 86 0
-263 113 0
-263 95 0
-263 106 0
-263 -86 0
264 -112 -87 -106 96 0
-264 112 0
-264 87 0
-264 106 0
-264 -96 0
265 -114 -96 -106 87 0
-265 114 0
-265 96 0
-265 106 0
-265 -87 0
-107 115 0
104 -106 -115 0
-104 106 0
-104 115 0
-103 104 0
-22 103 101 0
23 67 0
-23 -67 0
118 -88 0
-118 88 0
-89 -118 0
-90 -118 0
-88 -24 -117 0
-88 24 0
-89 -24 -117 0
-89 24 0
-90 -24 -117 0
-90 24 0
121 -23 0
-121 23 0
266 -121 0
-266 121 0
117 -121 0
-117 121 0
122 -26 -33 0
-122 26 0
-122 33 0
267 -122 0
-267 122 0
268 -88 -122 91 0
-268 88 0
-268 122 0
-268 -91 0
269 -125 -122 91 88 0
-269 125 0
-269 122 0
-269 -91 0
-269 -88 0
270 -125 -91 -88 -122 0
-270 125 0
-270 91 0
-270 88 0
-270 122 0
271 -89 -122 92 0
-271 89 0
-271 122 0
-271 -92 0
272 -126 -122 92 89 0
-272 126 0
-272 122 0
-272 -92 0
-272 -89 0
273 -126 -92 -89 -122 0
-273 126 0
-273 92 0
-273 89 0
-273 122 0
126 -90 -122 93 0
-126 90 0
-126 122 0
-126 -93 0
123 -122 -124 0
-123 122 0
-123 124 0
274 -123 117 0
-274 123 0
-274 -117 0
275 -91 -88 -122 0
-275 91 0
-275 88 0
-275 122 0
276 -122 91 88 0
-276 122 0
-276 -91 0
-276 -88 0
277 -127 -92 -89 -122 0
-277 127 0
-277 92 0
-277 89 0
-277 122 0
278 -127 -122 92 89 0
-278 127 0
-278 122 0
-278 -92 0
-278 -89 0
129 -88 -122 91 0
-129 88 0
-129 122 0
-129 -91 0
279 -127 -89 -122 92 0
-279 127 0
-279 89 0
-279 122 0
-279 -92 0
280 -129 -92 -122 89 0
-280 129 0
-280 92 0
-280 122 0
-280 -89 0
281 -128 -90 -122 93 0
-281 128 0
-281 90 0
-281 122 0
-281 -93 0
282 -130 -93 -122 90 0
-282 130 0
-282 93 0
-282 122 0
-282 -90 0
-123 131 0
283 -122 -131 0
-283 122 0
-283 131 0
132 -30 -37 0
-132 30 0
-132 37 0
284 -132 0
-284 132 0
285 -88 -132 97 0
-285 88 0
-285 132 0
-285 -97 0
286 -135 -132 97 88 0
-286 135 0
-286 132 0
-286 -97 0
-286 -88 0
287 -135 -97 -88 -132 0
-287 135 0
-287 97 0
-287 88 0
-287 132 0
288 -89 -132 98 0
-288 89 0
-288 132 0
-288 -98 0
289 -136 -132 98 89 0
-289 136 0
-289 132 0
-289 -98 0
-289 -89 0
290 -136 -98 -89 -132 0
-290 136 0
-290 98 0
-290 89 0
-290 132 0
136 -90 -132 99 0
-136 90 0
-136 132 0
-136 -99 0
133 -132 -134 0
-133 132 0
-133 134 0
291 -133 117 0
-291 133 0
-291 -117 0
292 -97 -88 -132 0
-292 97 0
-292 88 0
-292 132 0
293 -132 97 88 0
-293 132 0
-293 -97 0
-293 -88 0
294 -137 -98 -89 -132 0
-294 137 0
-294 98 0
-294 89 0
-294 132 0
295 -137 -132 98 89 0
-295 137 0
-295 132 0
-295 -98 0
-295 -89 0
139 -88 -132 97 0
-139 88 0
-139 132 0
-139 -97 0
296 -137 -89 -132 98 0
-296 137 0
-296 89 0
-296 132 0
-296 -98 0
297 -139 -98 -132 89 0
-297 139 0
-297 98 0
-297 132 0
-297 -89 0
298 -138 -90 -132 99 0
-298 138 0
-298 90 0
-298 132 0
-298 -99 0
299 -140 -99 -132 90 0
-299 140 0
-299 99 0
-299 132 0
-299 -90 0
-133 141 0
300 -132 -141 0
-300 132 0
-300 141 0
142 -28 -41 0
-142 28 0
-142 41 0
301 -142 0
-301 142 0
302 -88 -142 94 0
-302 88 0
-302 142 0
-302 -94 0
303 -145 -142 94 88 0
-303 145 0
-303 142 0
-303 -94 0
-303 -88 0
304 -145 -94 -88 -142 0
-304 145 0
-304 94 0
-304 88 0
-304 142 0
305 -89 -142 95 0
-305 89 0
-305 142 0
-305 -95 0
306 -146 -142 95 89 0
-306 146 0
-306 142 0
-306 -95 0
-306 -89 0
307 -146 -95 -89 -142 0
-307 146 0
-307 95 0
-307 89 0
-307 142 0
146 -90 -142 96 0
-146 90 0
-146 142 0
-146 -96 0
143 -142 -144 0
-143 142 0
-143 144 0
308 -143 117 0
-308 143 0
-308 -117 0
309 -94 -88 -142 0
-309 94 0
-309 88 0
-309 142 0
310 -142 94 88 0
-310 142 0
-310 -94 0
-310 -88 0
311 -147 -95 -89 -142 0
-311 147 0
-311 95 0
-311 89 0
-311 142 0
312 -147 -142 95 89 0
-312 147 0
-312 142 0
-312 -95 0
-312 -89 0
149 -88 -142 94 0
-149 88 0
-149 142 0
-149 -94 0
313 -147 -89 -142 95 0
-313 147 0
-313 89 0
-313 142 0
-313 -95 0
314 -149 -95 -142 89 0
-314 149 0
-314 95 0
-314 142 0
-314 -89 0
315 -148 -90 -142 96 0
-315 148 0
-315 90 0
-315 142 0
-315 -96 0
316 -150 -96 -142 90 0
-316 150 0
-316 96 0
-316 142 0
-316 -90 0
-143 151 0
317 -142 -151 0
-317 142 0
-317 151 0
-119 120 0
-24 119 117 0
25 68 0
-25 -68 0
154 -91 0
-154 91 0
-92 -154 0
-93 -154 0
-91 -26 -153 0
-91 26 0
-92 -26 -153 0
-92 26 0
-93 -26 -153 0
-93 26 0
157 -25 0
-157 25 0
318 -157 0
-318 157 0
153 -157 0
-153 157 0
158 -24 -34 0
-158 24 0
-158 34 0
319 -158 0
-319 158 0
320 -91 -158 88 0
-320 91 0
-320 158 0
-320 -88 0
321 -161 -158 88 91 0
-321 161 0
-321 158 0
-321 -88 0
-321 -91 0
322 -161 -88 -91 -158 0
-322 161 0
-322 88 0
-322 91 0
-322 158 0
323 -92 -158 89 0
-323 92 0
-323 158 0
-323 -89 0
324 -162 -158 89 92 0
-324 162 0
-324 158 0
-324 -89 0
-324 -92 0
325 -162 -89 -92 -158 0
-325 162 0
-325 89 0
-325 92 0
-325 158 0
162 -93 -158 90 0
-162 93 0
-162 158 0
-162 -90 0
159 -158 -160 0
-159 158 0
-159 160 0
326 -159 153 0
-326 159 0
-326 -153 0
327 -88 -91 -158 0
-327 88 0
-327 91 0
-327 158 0
328 -158 88 91 0
-328 158 0
-328 -88 0
-328 -91 0
329 -163 -89 -92 -158 0
-329 163 0
-329 89 0
-329 92 0
-329 158 0
330 -163 -158 89 92 0
-330 163 0
-330 158 0
-330 -89 0
-330 -92 0
165 -91 -158 88 0
-165 91 0
-165 158 0
-165 -88 0
331 -163 -92 -158 89 0
-331 163 0
-331 92 0
-331 158 0
-331 -89 0
332 -165 -89 -158 92 0
-332 165 0
-332 89 0
-332 158 0
-332 -92 0
333 -164 -93 -158 90 0
-333 164 0
-333 93 0
-333 158 0
-333 -90 0
334 -166 -90 -158 93 0
-334 166 0
-334 90 0
-334 158 0
-334 -93 0
-159 167 0
335 -158 -167 0
-335 158 0
-335 167 0
168 -28 -32 0
-168 28 0
-168 32 0
336 -168 0
-336 168 0
337 -91 -168 94 0
-337 91 0
-337 168 0
-337 -94 0
338 -171 -168 94 91 0
-338 171 0
-338 168 0
-338 -94 0
-338 -91 0
339 -171 -94 -91 -168 0
-339 171 0
-339 94 0
-339 91 0
-339 168 0
340 -92 -168 95 0
-340 92 0
-340 168 0
-340 -95 0
341 -172 -168 95 92 0
-341 172 0
-341 168 0
-341 -95 0
-341 -92 0
342 -172 -95 -92 -168 0
-342 172 0
-342 95 0
-342 92 0
-342 168 0
172 -93 -168 96 0
-172 93 0
-172 168 0
-172 -96 0
169 -168 -170 0
-169 168 0
-169 170 0
343 -169 153 0
-343 169 0
-343 -153 0
344 -94 -91 -168 0
-344 94 0
-344 91 0
-344 168 0
345 -168 94 91 0
-345 168 0
-345 -94 0
-345 -91 0
346 -173 -95 -92 -168 0
-346 173 0
-346 95 0
-346 92 0
-346 168 0
347 -173 -168 95 92 0
-347 173 0
-347 168 0
-347 -95 0
-347 -92 0
175 -91 -168 94 0
-175 91 0
-175 168 0
-175 -94 0
348 -173 -92 -168 95 0
-348 173 0
-348 92 0
-348 168 0
-348 -95 0
349 -175 -95 -168 92 0
-349 175 0
-349 95 0
-349 168 0
-349 -92 0
350 -174 -93 -168 96 0
-350 174 0
-350 93 0
-350 168 0
-350 -96 0
351 -176 -96 -168 93 0
-351 176 0
-351 96 0
-351 168 0
-351 -93 0
-169 177 0
352 -168 -177 0
-352 168 0
-352 177 0
-155 156 0
-26 155 153 0
27 69 0
-27 -69 0
180 -94 0
-180 94 0
-95 -180 0
-96 -180 0
-94 -28 -179 0
-94 28 0
-95 -28 -179 0
-95 28 0
-96 -28 -179 0
-96 28 0
183 -27 0
-183 27 0
353 -183 0
-353 183 0
179 -183 0
-179 183 0
184 -30 -31 0
-184 30 0
-184 31 0
354 -184 0
-354 184 0
355 -94 -184 97 0
-355 94 0
-355 184 0
-355 -97 0
356 -187 -184 97 94 0
-356 187 0
-356 184 0
-356 -97 0
-356 -94 0
357 -187 -97 -94 -184 0
-357 187 0
-357 97 0
-357 94 0
-357 184 0
358 -95 -184 98 0
-358 95 0
-358 184 0
-358 -98 0
359 -188 -184 98 95 0
-359 188 0
-359 184 0
-359 -98 0
-359 -95 0
360 -188 -98 -95 -184 0
-360 188 0
-360 98 0
-360 95 0
-360 184 0
188 -96 -184 99 0
-188 96 0
-188 184 0
-188 -99 0
185 -184 -186 0
-185 184 0
-185 186 0
361 -185 179 0
-361 185 0
-361 -179 0
362 -97 -94 -184 0
-362 97 0
-362 94 0
-362 184 0
363 -184 97 94 0
-363 184 0
-363 -97 0
-363 -94 0
364 -189 -98 -95 -184 0
-364 189 0
-364 98 0
-364 95 0
-364 184 0
365 -189 -184 98 95 0
-365 189 0
-365 184 0
-365 -98 0
-365 -95 0
191 -94 -184 97 0
-191 94 0
-191 184 0
-191 -97 0
366 -189 -95 -184 98 0
-366 189 0
-366 95 0
-366 184 0
-366 -98 0
367 -191 -98 -184 95 0
-367 191 0
-367 98 0
-367 184 0
-367 -95 0
368 -190 -96 -184 99 0
-368 190 0
-368 96 0
-368 184 0
-368 -99 0
369 -192 -99 -184 96 0
-369 192 0
-369 99 0
-369 184 0
-369 -96 0
-185 193 0
370 -184 -193 0
-370 184 0
-370 193 0
194 -26 -35 0
-194 26 0
-194 35 0
371 -194 0
-371 194 0
372 -94 -194 91 0
-372 94 0
-372 194 0
-372 -91 0
373 -197 -194 91 94 0
-373 197 0
-373 194 0
-373 -91 0
-373 -94 0
374 -197 -91 -94 -194 0
-374 197 0
-374 91 0
-374 94 0
-374 194 0
375 -95 -194 92 0
-375 95 0
-375 194 0
-375 -92 0
376 -198 -194 92 95 0
-376 198 0
-376 194 0
-376 -92 0
-376 -95 0
377 -198 -92 -95 -194 0
-377 198 0
-377 92 0
-377 95 0
-377 194 0
198 -96 -194 93 0
-198 96 0
-198 194 0
-198 -93 0
195 -194 -196 0
-195 194 0
-195 196 0
378 -195 179 0
-378 195 0
-378 -179 0
379 -91 -94 -194 0
-379 91 0
-379 94 0
-379 194 0
380 -194 91 94 0
-380 194 0
-380 -91 0
-380 -94 0
381 -199 -92 -95 -194 0
-381 199 0
-381 92 0
-381 95 0
-381 194 0
382 -199 -194 92 95 0
-382 199 0
-382 194 0
-382 -92 0
-382 -95 0
201 -94 -194 91 0
-201 94 0
-201 194 0
-201 -91 0
383 -199 -95 -194 92 0
-383 199 0
-383 95 0
-383 194 0
-383 -92 0
384 -201 -92 -194 95 0
-384 201 0
-384 92 0
-384 194 0
-384 -95 0
385 -200 -96 -194 93 0
-385 200 0
-385 96 0
-385 194 0
-385 -93 0
386 -202 -93 -194 96 0
-386 202 0
-386 93 0
-386 194 0
-386 -96 0
-195 203 0
387 -194 -203 0
-387 194 0
-387 203 0
204 -24 -38 0
-204 24 0
-204 38 0
388 -204 0
-388 204 0
389 -94 -204 88 0
-389 94 0
-389 204 0
-389 -88 0
390 -207 -204 88 94 0
-390 207 0
-390 204 0
-390 -88 0
-390 -94 0
391 -207 -88 -94 -204 0
-391 207 0
-391 88 0
-391 94 0
-391 204 0
392 -95 -204 89 0
-392 95 0
-392 204 0
-392 -89 0
393 -208 -204 89 95 0
-393 208 0
-393 204 0
-393 -89 0
-393 -95 0
394 -208 -89 -95 -204 0
-394 208 0
-394 89 0
-394 95 0
-394 204 0
208 -96 -204 90 0
-208 96 0
-208 204 0
-208 -90 0
205 -204 -206 0
-205 204 0
-205 206 0
395 -205 179 0
-395 205 0
-395 -179 0
396 -88 -94 -204 0
-396 88 0
-396 94 0
-396 204 0
397 -204 88 94 0
-397 204 0
-397 -88 0
-397 -94 0
398 -209 -89 -95 -204 0
-398 209 0
-398 89 0
-398 95 0
-398 204 0
399 -209 -204 89 95 0
-399 209 0
-399 204 0
-399 -89 0
-399 -95 0
211 -94 -204 88 0
-211 94 0
-211 204 0
-211 -88 0
400 -209 -95 -204 89 0
-400 209 0
-400 95 0
-400 204 0
-400 -89 0
401 -211 -89 -204 95 0
-401 211 0
-401 89 0
-401 204 0
-401 -95 0
402 -210 -96 -204 90 0
-402 210 0
-402 96 0
-402 204 0
-402 -90 0
403 -212 -90 -204 96 0
-403 212 0
-403 90 0
-403 204 0
-403 -96 0
-205 213 0
404 -204 -213 0
-404 204 0
-404 213 0
214 -22 -40 0
-214 22 0
-214 40 0
405 -214 0
-405 214 0
406 -94 -214 85 0
-406 94 0
-406 214 0
-406 -85 0
407 -217 -214 85 94 0
-407 217 0
-407 214 0
-407 -85 0
-407 -94 0
408 -217 -85 -94 -214 0
-408 217 0
-408 85 0
-408 94 0
-408 214 0
409 -95 -214 86 0
-409 95 0
-409 214 0
-409 -86 0
410 -218 -214 86 95 0
-410 218 0
-410 214 0
-410 -86 0
-410 -95 0
411 -218 -86 -95 -214 0
-411 218 0
-411 86 0
-411 95 0
-411 214 0
218 -96 -214 87 0
-218 96 0
-218 214 0
-218 -87 0
215 -214 -216 0
-215 214 0
-215 216 0
412 -215 179 0
-412 215 0
-412 -179 0
413 -85 -94 -214 0
-413 85 0
-413 94 0
-413 214 0
414 -214 85 94 0
-414 214 0
-414 -85 0
-414 -94 0
415 -219 -86 -95 -214 0
-415 219 0
-415 86 0
-415 95 0
-415 214 0
416 -219 -214 86 95 0
-416 219 0
-416 214 0
-416 -86 0
-416 -95 0
221 -94 -214 85 0
-221 94 0
-221 214 0
-221 -85 0
417 -219 -95 -214 86 0
-417 219 0
-417 95 0
-417 214 0
-417 -86 0
418 -221 -86 -214 95 0
-418 221 0
-418 86 0
-418 214 0
-418 -95 0
419 -220 -96 -214 87 0
-419 220 0
-419 96 0
-419 214 0
-419 -87 0
420 -222 -87 -214 96 0
-420 222 0
-420 87 0
-420 214 0
-420 -96 0
-215 223 0
421 -214 -223 0
-421 214 0
-421 223 0
-181 182 0
-28 181 179 0
29 70 0
-29 -70 0
226 -97 0
-226 97 0
-98 -226 0
-99 -226 0
-97 -30 -225 0
-97 30 0
-98 -30 -225 0
-98 30 0
-99 -30 -225 0
-99 30 0
229 -29 0
-229 29 0
422 -229 0
-422 229 0
225 -229 0
-225 229 0
230 -28 -36 0
-230 28 0
-230 36 0
423 -230 0
-423 230 0
424 -97 -230 94 0
-424 97 0
-424 230 0
-424 -94 0
425 -233 -230 94 97 0
-425 233 0
-425 230 0
-425 -94 0
-425 -97 0
426 -233 -94 -97 -230 0
-426 233 0
-426 94 0
-426 97 0
-426 230 0
427 -98 -230 95 0
-427 98 0
-427 230 0
-427 -95 0
428 -234 -230 95 98 0
-428 234 0
-428 230 0
-428 -95 0
-428 -98 0
429 -234 -95 -98 -230 0
-429 234 0
-429 95 0
-429 98 0
-429 230 0
234 -99 -230 96 0
-234 99 0
-234 230 0
-234 -96 0
231 -230 -232 0
-231 230 0
-231 232 0
430 -231 225 0
-430 231 0
-430 -225 0
431 -94 -97 -230 0
-431 94 0
-431 97 0
-431 230 0
432 -230 94 97 0
-432 230 0
-432 -94 0
-432 -97 0
433 -235 -95 -98 -230 0
-433 235 0
-433 95 0
-433 98 0
-433 230 0
434 -235 -230 95 98 0
-434 235 0
-434 230 0
-434 -95 0
-434 -98 0
237 -97 -230 94 0
-237 97 0
-237 230 0
-237 -94 0
435 -235 -98 -230 95 0
-435 235 0
-435 98 0
-435 230 0
-435 -95 0
436 -237 -95 -230 98 0
-436 237 0
-436 95 0
-436 230 0
-436 -98 0
437 -236 -99 -230 96 0
-437 236 0
-437 99 0
-437 230 0
-437 -96 0
438 -238 -96 -230 99 0
-438 238 0
-438 96 0
-438 230 0
-438 -99 0
-231 239 0
439 -230 -239 0
-439 230 0
-439 239 0
240 -24 -42 0
-240 24 0
-240 42 0
440 -240 0
-440 240 0
441 -97 -240 88 0
-441 97 0
-441 240 0
-441 -88 0
442 -243 -240 88 97 0
-442 243 0
-442 240 0
-442 -88 0
-442 -97 0
443 -243 -88 -97 -240 0
-443 243 0
-443 88 0
-443 97 0
-443 240 0
444 -98 -240 89 0
-444 98 0
-444 240 0
-444 -89 0
445 -244 -240 89 98 0
-445 244 0
-445 240 0
-445 -89 0
-445 -98 0
446 -244 -89 -98 -240 0
-446 244 0
-446 89 0
-446 98 0
-446 240 0
244 -99 -240 90 0
-244 99 0
-244 240 0
-244 -90 0
241 -240 -242 0
-241 240 0
-241 242 0
447 -241 225 0
-447 241 0
-447 -225 0
448 -88 -97 -240 0
-448 88 0
-448 97 0
-448 240 0
449 -240 88 97 0
-449 240 0
-449 -88 0
-449 -97 0
450 -245 -89 -98 -240 0
-450 245 0
-450 89 0
-450 98 0
-450 240 0
451 -245 -240 89 98 0
-451 245 0
-451 240 0
-451 -89 0
-451 -98 0
247 -97 -240 88 0
-247 97 0
-247 240 0
-247 -88 0
452 -245 -98 -240 89 0
-452 245 0
-452 98 0
-452 240 0
-452 -89 0
453 -247 -89 -240 98 0
-453 247 0
-453 89 0
-453 240 0
-453 -98 0
454 -246 -99 -240 90 0
-454 246 0
-454 99 0
-454 240 0
-454 -90 0
455 -248 -90 -240 99 0
-455 248 0
-455 90 0
-455 240 0
-455 -99 0
-241 249 0
456 -240 -249 0
-456 240 0
-456 249 0
-227 228 0
-30 227 225 0
31 71 0
-31 -71 0
32 72 0
-32 -72 0
33 73 0
-33 -73 0
34 74 0
-34 -74 0
35 75 0
-35 -75 0
36 76 0
-36 -76 0
37 77 0
-37 -77 0
38 78 0
-38 -78 0
39 79 0
-39 -79 0
40 80 0
-40 -80 0
41 81 0
-41 -81 0
42 82 0
-42 -82 0
43 83 0
-43 -83 0
44 -43 0
-44 43 0
45 84 0
-45 -84 0
46 -45 0
-46 45 0
47 0
48 0
49 0
50 0
51 0
52 0
53 0
54 0
55 0
56 0
57 0
58 0
59 0
60 0
61 0
62 0
63 0
64 0
65 0
66 21 0
-66 -21 0
67 23 0
-67 -23 0
68 25 0
-68 -25 0
69 27 0
-69 -27 0
70 29 0
-70 -29 0
71 31 0
-71 -31 0
72 32 0
-72 -32 0
73 33 0
-73 -33 0
74 34 0
-74 -34 0
75 35 0
-75 -35 0
76 36 0
-76 -36 0
77 37 0
-77 -37 0
78 38 0
-78 -38 0
79 39 0
-79 -39 0
80 40 0
-80 -40 0
81 41 0
-81 -41 0
82 42 0
-82 -42 0
83 43 0
-83 -43 0
84 45 0
-84 -45 0
-1 0
-1 0
-2 0
-3 0
-4 0
-5 0
-6 0
-7 0
-8 0
-9 0
-10 0
-11 0
-12 0
-13 0
-14 0
-15 0
-16 0
-17 0
-18 0
-19 0
-20 0
-22 250 251 0
22 -250 0
22 -251 0
-24 266 267 284 301 0
24 -266 0
24 -267 0
24 -284 0
24 -301 0
-26 318 319 336 0
26 -318 0
26 -319 0
26 -336 0
-28 353 354 371 388 405 0
28 -353 0
28 -354 0
28 -371 0
28 -388 0
28 -405 0
-30 422 423 440 0
30 -422 0
30 -423 0
30 -440 0
-100 0
-108 252 253 254 0
108 -252 0
108 -253 0
108 -254 0
-109 255 256 257 0
109 -255 0
109 -256 0
109 -257 0
-111 258 259 0
111 -258 0
111 -259 0
-112 260 261 0
112 -260 0
112 -261 0
-114 262 263 0
114 -262 0
114 -263 0
-115 264 265 0
115 -264 0
115 -265 0
-116 0
-119 274 291 308 0
119 -274 0
119 -291 0
119 -308 0
-120 283 300 317 0
120 -283 0
120 -300 0
120 -317 0
-124 268 269 270 0
124 -268 0
124 -269 0
124 -270 0
-125 271 272 273 0
125 -271 0
125 -272 0
125 -273 0
-127 275 276 0
127 -275 0
127 -276 0
-128 277 278 0
128 -277 0
128 -278 0
-130 279 280 0
130 -279 0
130 -280 0
-131 281 282 0
131 -281 0
131 -282 0
-134 285 286 287 0
134 -285 0
134 -286 0
134 -287 0
-135 288 289 290 0
135 -288 0
135 -289 0
135 -290 0
-137 292 293 0
137 -292 0
137 -293 0
-138 294 295 0
138 -294 0
138 -295 0
-140 296 297 0
140 -296 0
140 -297 0
-141 298 299 0
141 -298 0
141 -299 0
-144 302 303 304 0
144 -302 0
144 -303 0
144 -304 0
-145 305 306 307 0
145 -305 0
145 -306 0
145 -307 0
-147 309 310 0
147 -309 0
147 -310 0
-148 311 312 0
148 -311 0
148 -312 0
-150 313 314 0
150 -313 0
150 -314 0
-151 315 316 0
151 -315 0
151 -316 0
-152 0
-155 326 343 0
155 -326 0
155 -343 0
-156 335 352 0
156 -335 0
156 -352 0
-160 320 321 322 0
160 -320 0
160 -321 0
160 -322 0
-161 323 324 325 0
161 -323 0
161 -324 0
161 -325 0
-163 327 328 0
163 -327 0
163 -328 0
-164 329 330 0
164 -329 0
164 -330 0
-166 331 332 0
166 -331 0
166 -332 0
-167 333 334 0
167 -333 0
167 -334 0
-170 337 338 339 0
170 -337 0
170 -338 0
170 -339 0
-171 340 341 342 0
171 -340 0
171 -341 0
171 -342 0
-173 344 345 0
173 -344 0
173 -345 0
-174 346 347 0
174 -346 0
174 -347 0
-176 348 349 0
176 -348 0
176 -349 0
-177 350 351 0
177 -350 0
177 -351 0
-178 0
-181 361 378 395 412 0
181 -361 0
181 -378 0
181 -395 0
181 -412 0
-182 370 387 404 421 0
182 -370 0
182 -387 0
182 -404 0
182 -421 0
-186 355 356 357 0
186 -355 0
186 -356 0
186 -357 0
-187 358 359 360 0
187 -358 0
187 -359 0
187 -360 0
-189 362 363 0
189 -362 0
189 -363 0
-190 364 365 0
190 -364 0
190 -365 0
-192 366 367 0
192 -366 0
192 -367 0
-193 368 369 0
193 -368 0
193 -369 0
-196 372 373 374 0
196 -372 0
196 -373 0
196 -374 0
-197 375 376 377 0
197 -375 0
197 -376 0
197 -377 0
-199 379 380 0
199 -379 0
199 -380 0
-200 381 382 0
200 -381 0
200 -382 0
-202 383 384 0
202 -383 0
202 -384 0
-203 385 386 0
203 -385 0
203 -386 0
-206 389 390 391 0
206 -389 0
206 -390 0
206 -391 0
-207 392 393 394 0
207 -392 0
207 -393 0
207 -394 0
-209 396 397 0
209 -396 0
209 -397 0
-210 398 399 0
210 -398 0
210 -399 0
-212 400 401 0
212 -400 0
212 -401 0
-213 402 403 0
213 -402 0
213 -403 0
-216 406 407 408 0
216 -406 0
216 -407 0
216 -408 0
-217 409 410 411 0
217 -409 0
217 -410 0
217 -411 0
-219 413 414 0
219 -413 0
219 -414 0
-220 415 416 0
220 -415 0
220 -416 0
-222 417 418 0
222 -417 0
222 -418 0
-223 419 420 0
223 -419 0
223 -420 0
-224 0
-227 430 447 0
227 -430 0
227 -447 0
-228 439 456 0
228 -439 0
228 -456 0
-232 424 425 426 0
232 -424 0
232 -425 0
232 -426 0
-233 427 428 429 0
233 -427 0
233 -428 0
233 -429 0
-235 431 432 0
235 -431 0
235 -432 0
-236 433 434 0
236 -433 0
236 -434 0
-238 435 436 0
238 -435 0
238 -436 0
-239 437 438 0
239 -437 0
239 -438 0
-242 441 442 443 0
242 -441 0
242 -442 0
242 -443 0
-243 444 445 446 0
243 -444 0
243 -445 0
243 -446 0
-245 448 449 0
245 -448 0
245 -449 0
-246 450 451 0
246 -450 0
246 -451 0
-248 452 453 0
248 -452 0
248 -453 0
-249 454 455 0
249 -454 0
249 -455 0
c p auxilliary 1 2 3 4 5 6 7 8 9 10 11 12 13 14 15 16 17 18 19 20 66 67 68 69 70 71 72 73 74 75 76 77 78 79 80 81 82 83 84 85 86 87 88 89 90 91 92 93 94 95 96 97 98 99 100 101 102 103 104 105 106 107 108 109 110 111 112 113 114 115 116 117 118 119 120 121 122 123 124 125 126 127 128 129 130 131 132 133 134 135 136 137 138 139 140 141 142 143 144 145 146 147 148 149 150 151 152 153 154 155 156 157 158 159 160 161 162 163 164 165 166 167 168 169 170 171 172 173 174 175 176 177 178 179 180 181 182 183 184 185 186 187 188 189 190 191 192 193 194 195 196 197 198 199 200 201 202 203 204 205 206 207 208 209 210 211 212 213 214 215 216 217 218 219 220 221 222 223 224 225 226 227 228 229 230 231 232 233 234 235 236 237 238 239 240 241 242 243 244 245 246 247 248 249 250 251 252 253 254 255 256 257 258 259 260 261 262 263 264 265 266 267 268 269 270 271 272 273 274 275 276 277 278 279 280 281 282 283 284 285 286 287 288 289 290 291 292 293 294 295 296 297 298 299 300 301 302 303 304 305 306 307 308 309 310 311 312 313 314 315 316 317 318 319 320 321 322 323 324 325 326 327 328 329 330 331 332 333 334 335 336 337 338 339 340 341 342 343 344 345 346 347 348 349 350 351 352 353 354 355 356 357 358 359 360 361 362 363 364 365 366 367 368 369 370 371 372 373 374 375 376 377 378 379 380 381 382 383 384 385 386 387 388 389 390 391 392 393 394 395 396 397 398 399 400 401 402 403 404 405 406 407 408 409 410 411 412 413 414 415 416 417 418 419 420 421 422 423 424 425 426 427 428 429 430 431 432 433 434 435 436 437 438 439 440 441 442 443 444 445 446 447 448 449 450 451 452 453 454 455 456 0
