aux_benchmarks/smokers/smokers_7_3_prob.lp.cnf
p cnf 103 181
54 0
-1 54 0
1 -54 0
55 0
-2 55 0
2 -55 0
56 0
-3 56 0
3 -56 0
57 0
-4 57 0
4 -57 0
58 0
-5 58 0
5 -58 0
59 0
-6 59 0
6 -59 0
60 0
-7 60 0
7 -60 0
61 0
-8 61 0
8 -61 0
62 0
-9 62 0
9 -62 0
63 0
-10 63 0
10 -63 0
64 0
-11 64 0
11 -64 0
65 0
-12 65 0
12 -65 0
66 0
-13 66 0
13 -66 0
67 0
-14 67 0
14 -67 0
68 0
-15 68 0
15 -68 0
69 0
-16 69 0
16 -69 0
70 0
-17 70 0
17 -70 0
71 0
-18 71 0
18 -71 0
72 0
-19 72 0
19 -72 0
73 -34 -53 0
-73 34 0
-73 53 0
74 -36 -52 0
-74 36 0
-74 52 0
75 -38 -26 0
-75 38 0
-75 26 0
76 -47 0
-76 47 0
-20 73 74 75 76 0
20 -73 0
20 -74 0
20 -75 0
20 -76 0
77 -39 -26 0
-77 39 0
-77 26 0
78 -46 0
-78 46 0
-22 77 78 0
22 -77 0
22 -78 0
79 -25 0
-79 25 0
-24 79 0
24 -79 0
80 -27 0
-80 27 0
81 -43 -47 0
-81 43 0
-81 47 0
82 -37 -49 0
-82 37 0
-82 49 0
83 -42 -46 0
-83 42 0
-83 46 0
84 -35 -48 0
-84 35 0
-84 48 0
-26 80 81 82 83 84 0
26 -80 0
26 -81 0
26 -82 0
26 -83 0
26 -84 0
85 -52 0
-85 52 0
86 -44 -20 0
-86 44 0
-86 20 0
-28 85 86 0
28 -85 0
28 -86 0
87 -53 0
-87 53 0
88 -45 -20 0
-88 45 0
-88 20 0
-31 87 88 0
31 -87 0
31 -88 0
89 -33 0
-89 33 0
-32 89 0
32 -89 0
90 -23 0
-90 23 0
-46 90 0
46 -90 0
91 -51 0
-91 51 0
92 -36 -49 0
-92 36 0
-92 49 0
-47 91 92 0
47 -91 0
47 -92 0
93 -45 -47 0
-93 45 0
-93 47 0
94 -50 0
-94 50 0
-48 93 94 0
48 -93 0
48 -94 0
95 -29 0
-95 29 0
96 -44 -51 0
-96 44 0
-96 51 0
-49 95 96 0
49 -95 0
49 -96 0
97 -30 0
-97 30 0
-50 97 0
50 -97 0
98 -21 0
-98 21 0
99 -34 -50 0
-99 34 0
-99 50 0
-51 98 99 0
51 -98 0
51 -99 0
100 -49 0
-100 49 0
101 -40 -26 0
-101 40 0
-101 26 0
-52 100 101 0
52 -100 0
52 -101 0
102 -48 0
-102 48 0
103 -41 -26 0
-103 41 0
-103 26 0
-53 102 103 0
53 -102 0
53 -103 0
c p weight 1 1.0;1.0;1.0;1.0;1.0;1.0;1.0 0
c p weight -1 1.0;1.0;1.0;1.0;1.0;1.0;1.0 0
c p weight 2 1.0;1.0;1.0;1.0;1.0;1.0;1.0 0
c p weight -2 1.0;1.0;1.0;1.0;1.0;1.0;1.0 0
c p weight 3 1.0;1.0;1.0;1.0;1.0;1.0;1.0 0
c p weight -3 1.0;1.0;1.0;1.0;1.0;1.0;1.0 0
c p weight 4 1.0;1.0;1.0;1.0;1.0;1.0;1.0 0
c p weight -4 1.0;1.0;1.0;1.0;1.0;1.0;1.0 0
c p weight 5 1.0;1.0;1.0;1.0;1.0;1.0;1.0 0
c p weight -5 1.0;1.0;1.0;1.0;1.0;1.0;1.0 0
c p weight 6 1.0;1.0;1.0;1.0;1.0;1.0;1.0 0
c p weight -6 1.0;1.0;1.0;1.0;1.0;1.0;1.0 0
c p weight 7 1.0;1.0;1.0;1.0;1.0;1.0;1.0 0
c p weight -7 1.0;1.0;1.0;1.0;1.0;1.0;1.0 0
c p weight 8 1.0;1.0;1.0;1.0;1.0;1.0;1.0 0
c p weight -8 1.0;1.0;1.0;1.0;1.0;1.0;1.0 0
c p weight 9 1.0;1.0;1.0;1.0;1.0;1.0;1.0 0
c p weight -9 1.0;1.0;1.0;1.0;1.0;1.0;1.0 0
c p weight 10 1.0;1.0;1.0;1.0;1.0;1.0;1.0 0
c p weight -10 1.0;1.0;1.0;1.0;1.0;1.0;1.0 0
c p weight 11 1.0;1.0;1.0;1.0;1.0;1.0;1.0 0
c p weight -11 1.0;1.0;1.0;1.0;1.0;1.0;1.0 0
c p weight 12 1.0;1.0;1.0;1.0;1.0;1.0;1.0 0
c p weight -12 1.0;1.0;1.0;1.0;1.0;1.0;1.0 0
c p weight 13 1.0;1.0;1.0;1.0;1.0;1.0;1.0 0
c p weight -13 1.0;1.0;1.0;1.0;1.0;1.0;1.0 0
c p weight 14 1.0;1.0;1.0;1.0;1.0;1.0;1.0 0
c p weight -14 1.0;1.0;1.0;1.0;1.0;1.0;1.0 0
c p weight 15 1.0;1.0;1.0;1.0;1.0;1.0;1.0 0
c p weight -15 1.0;1.0;1.0;1.0;1.0;1.0;1.0 0
c p weight 16 1.0;1.0;1.0;1.0;1.0;1.0;1.0 0
c p weight -16 1.0;1.0;1.0;1.0;1.0;1.0;1.0 0
c p weight 17 1.0;1.0;1.0;1.0;1.0;1.0;1.0 0
c p weight -17 1.0;1.0;1.0;1.0;1.0;1.0;1.0 0
c p weight 18 1.0;1.0;1.0;1.0;1.0;1.0;1.0 0
c p weight -18 1.0;1.0;1.0;1.0;1.0;1.0;1.0 0
c p weight 19 1.0;1.0;1.0;1.0;1.0;1.0;1.0 0
c p weight -19 1.0;1.0;1.0;1.0;1.0;1.0;1.0 0
c p weight 20 1.0;1.0;1.0;1.0;1.0;1.0;1.0 0
c p weight -20 0.0;1.0;1.0;1.0;1.0;1.0;1.0 0
c p weight 21 0.5;0.5;0.5;0.5;0.5;0.5;0.5 0
c p weight -21 0.5;0.5;0.5;0.5;0.5;0.5;0.5 0
c p weight 22 1.0;1.0;1.0;1.0;1.0;1.0;1.0 0
c p weight -22 1.0;0.0;1.0;1.0;1.0;1.0;1.0 0
c p weight 23 0.5;0.5;0.5;0.5;0.5;0.5;0.5 0
c p weight -23 0.5;0.5;0.5;0.5;0.5;0.5;0.5 0
c p weight 24 1.0;1.0;1.0;1.0;1.0;1.0;1.0 0
c p weight -24 1.0;1.0;0.0;1.0;1.0;1.0;1.0 0
c p weight 25 0.5;0.5;0.5;0.5;0.5;0.5;0.5 0
c p weight -25 0.5;0.5;0.5;0.5;0.5;0.5;0.5 0
c p weight 26 1.0;1.0;1.0;1.0;1.0;1.0;1.0 0
c p weight -26 1.0;1.0;1.0;0.0;1.0;1.0;1.0 0
c p weight 27 0.5;0.5;0.5;0.5;0.5;0.5;0.5 0
c p weight -27 0.5;0.5;0.5;0.5;0.5;0.5;0.5 0
c p weight 28 1.0;1.0;1.0;1.0;1.0;1.0;1.0 0
c p weight -28 1.0;1.0;1.0;1.0;0.0;1.0;1.0 0
c p weight 29 0.5;0.5;0.5;0.5;0.5;0.5;0.5 0
c p weight -29 0.5;0.5;0.5;0.5;0.5;0.5;0.5 0
c p weight 30 0.5;0.5;0.5;0.5;0.5;0.5;0.5 0
c p weight -30 0.5;0.5;0.5;0.5;0.5;0.5;0.5 0
c p weight 31 1.0;1.0;1.0;1.0;1.0;1.0;1.0 0
c p weight -31 1.0;1.0;1.0;1.0;1.0;0.0;1.0 0
c p weight 32 1.0;1.0;1.0;1.0;1.0;1.0;1.0 0
c p weight -32 1.0;1.0;1.0;1.0;1.0;1.0;0.0 0
c p weight 33 0.5;0.5;0.5;0.5;0.5;0.5;0.5 0
c p weight -33 0.5;0.5;0.5;0.5;0.5;0.5;0.5 0
c p weight 34 0.5;0.5;0.5;0.5;0.5;0.5;0.5 0
c p weight -34 0.5;0.5;0.5;0.5;0.5;0.5;0.5 0
c p weight 35 0.5;0.5;0.5;0.5;0.5;0.5;0.5 0
c p weight -35 0.5;0.5;0.5;0.5;0.5;0.5;0.5 0
c p weight 36 0.5;0.5;0.5;0.5;0.5;0.5;0.5 0
c p weight -36 0.5;0.5;0.5;0.5;0.5;0.5;0.5 0
c p weight 37 0.5;0.5;0.5;0.5;0.5;0.5;0.5 0
c p weight -37 0.5;0.5;0.5;0.5;0.5;0.5;0.5 0
c p weight 38 0.5;0.5;0.5;0.5;0.5;0.5;0.5 0
c p weight -38 0.5;0.5;0.5;0.5;0.5;0.5;0.5 0
c p weight 39 0.5;0.5;0.5;0.5;0.5;0.5;0.5 0
c p weight -39 0.5;0.5;0.5;0.5;0.5;0.5;0.5 0
c p weight 40 0.5;0.5;0.5;0.5;0.5;0.5;0.5 0
c p weight -40 0.5;0.5;0.5;0.5;0.5;0.5;0.5 0
c p weight 41 0.5;0.5;0.5;0.5;0.5;0.5;0.5 0
c p weight -41 0.5;0.5;0.5;0.5;0.5;0.5;0.5 0
c p weight 42 0.5;0.5;0.5;0.5;0.5;0.5;0.5 0
c p weight -42 0.5;0.5;0.5;0.5;0.5;0.5;0.5 0
c p weight 43 0.5;0.5;0.5;0.5;0.5;0.5;0.5 0
c p weight -43 0.5;0.5;0.5;0.5;0.5;0.5;0.5 0
c p weight 44 0.5;0.5;0.5;0.5;0.5;0.5;0.5 0
c p weight -44 0.5;0.5;0.5;0.5;0.5;0.5;0.5 0
c p weight 45 0.5;0.5;0.5;0.5;0.5;0.5;0.5 0
c p weight -45 0.5;0.5;0.5;0.5;0.5;0.5;0.5 0
c p weight 46 1.0;1.0;1.0;1.0;1.0;1.0;1.0 0
c p weight -46 1.0;1.0;1.0;1.0;1.0;1.0;1.0 0
c p weight 47 1.0;1.0;1.0;1.0;1.0;1.0;1.0 0
c p weight -47 1.0;1.0;1.0;1.0;1.0;1.0;1.0 0
c p weight 48 1.0;1.0;1.0;1.0;1.0;1.0;1.0 0
c p weight -48 1.0;1.0;1.0;1.0;1.0;1.0;1.0 0
c p weight 49 1.0;1.0;1.0;1.0;1.0;1.0;1.0 0
c p weight -49 1.0;1.0;1.0;1.0;1.0;1.0;1.0 0
c p weight 50 1.0;1.0;1.0;1.0;1.0;1.0;1.0 0
c p weight -50 1.0;1.0;1.0;1.0;1.0;1.0;1.0 0
c p weight 51 1.0;1.0;1.0;1.0;1.0;1.0;1.0 0
c p weight -51 1.0;1.0;1.0;1.0;1.0;1.0;1.0 0
c p weight 52 1.0;1.0;1.0;1.0;1.0;1.0;1.0 0
c p weight -52 1.0;1.0;1.0;1.0;1.0;1.0;1.0 0
c p weight 53 1.0;1.0;1.0;1.0;1.0;1.0;1.0 0
c p weight -53 1.0;1.0;1.0;1.0;1.0;1.0;1.0 0
c p weight 54 1.0;1.0;1.0;1.0;1.0;1.0;1.0 0
c p weight -54 1.0;1.0;1.0;1.0;1.0;1.0;1.0 0
c p weight 55 1.0;1.0;1.0;1.0;1.0;1.0;1.0 0
c p weight -55 1.0;1.0;1.0;1.0;1.0;1.0;1.0 0
c p weight 56 1.0;1.0;1.0;1.0;1.0;1.0;1.0 0
c p weight -56 1.0;1.0;1.0;1.0;1.0;1.0;1.0 0
c p weight 57 1.0;1.0;1.0;1.0;1.0;1.0;1.0 0
c p weight -57 1.0;1.0;1.0;1.0;1.0;1.0;1.0 0
c p weight 58 1.0;1.0;1.0;1.0;1.0;1.0;1.0 0
c p weight -58 1.0;1.0;1.0;1.0;1.0;1.0;1.0 0
c p weight 59 1.0;1.0;1.0;1.0;1.0;1.0;1.0 0
c p weight -59 1.0;1.0;1.0;1.0;1.0;1.0;1.0 0
c p weight 60 1.0;1.0;1.0;1.0;1.0;1.0;1.0 0
c p weight -60 1.0;1.0;1.0;1.0;1.0;1.0;1.0 0
c p weight 61 1.0;1.0;1.0;1.0;1.0;1.0;1.0 0
c p weight -61 1.0;1.0;1.0;1.0;1.0;1.0;1.0 0
c p weight 62 1.0;1.0;1.0;1.0;1.0;1.0;1.0 0
c p weight -62 1.0;1.0;1.0;1.0;1.0;1.0;1.0 0
c p weight 63 1.0;1.0;1.0;1.0;1.0;1.0;1.0 0
c p weight -63 1.0;1.0;1.0;1.0;1.0;1.0;1.0 0
c p weight 64 1.0;1.0;1.0;1.0;1.0;1.0;1.0 0
c p weight -64 1.0;1.0;1.0;1.0;1.0;1.0;1.0 0
c p weight 65 1.0;1.0;1.0;1.0;1.0;1.0;1.0 0
c p weight -65 1.0;1.0;1.0;1.0;1.0;1.0;1.0 0
c p weight 66 1.0;1.0;1.0;1.0;1.0;1.0;1.0 0
c p weight -66 1.0;1.0;1.0;1.0;1.0;1.0;1.0 0
c p weight 67 1.0;1.0;1.0;1.0;1.0;1.0;1.0 0
c p weight -67 1.0;1.0;1.0;1.0;1.0;1.0;1.0 0
c p weight 68 1.0;1.0;1.0;1.0;1.0;1.0;1.0 0
c p weight -68 1.0;1.0;1.0;1.0;1.0;1.0;1.0 0
c p weight 69 1.0;1.0;1.0;1.0;1.0;1.0;1.0 0
c p weight -69 1.0;1.0;1.0;1.0;1.0;1.0;1.0 0
c p weight 70 1.0;1.0;1.0;1.0;1.0;1.0;1.0 0
c p weight -70 1.0;1.0;1.0;1.0;1.0;1.0;1.0 0
c p weight 71 1.0;1.0;1.0;1.0;1.0;1.0;1.0 0
c p weight -71 1.0;1.0;1.0;1.0;1.0;1.0;1.0 0
c p weight 72 1.0;1.0;1.0;1.0;1.0;1.0;1.0 0
c p weight -72 1.0;1.0;1.0;1.0;1.0;1.0;1.0 0
c p weight 73 1.0;1.0;1.0;1.0;1.0;1.0;1.0 0
c p weight -73 1.0;1.0;1.0;1.0;1.0;1.0;1.0 0
c p weight 74 1.0;1.0;1.0;1.0;1.0;1.0;1.0 0
c p weight -74 1.0;1.0;1.0;1.0;1.0;1.0;1.0 0
c p weight 75 1.0;1.0;1.0;1.0;1.0;1.0;1.0 0
c p weight -75 1.0;1.0;1.0;1.0;1.0;1.0;1.0 0
c p weight 76 1.0;1.0;1.0;1.0;1.0;1.0;1.0 0
c p weight -76 1.0;1.0;1.0;1.0;1.0;1.0;1.0 0
c p weight 77 1.0;1.0;1.0;1.0;1.0;1.0;1.0 0
c p weight -77 1.0;1.0;1.0;1.0;1.0;1.0;1.0 0
c p weight 78 1.0;1.0;1.0;1.0;1.0;1.0;1.0 0
c p weight -78 1.0;1.0;1.0;1.0;1.0;1.0;1.0 0
c p weight 79 1.0;1.0;1.0;1.0;1.0;1.0;1.0 0
c p weight -79 1.0;1.0;1.0;1.0;1.0;1.0;1.0 0
c p weight 80 1.0;1.0;1.0;1.0;1.0;1.0;1.0 0
c p weight -80 1.0;1.0;1.0;1.0;1.0;1.0;1.0 0
c p weight 81 1.0;1.0;1.0;1.0;1.0;1.0;1.0 0
c p weight -81 1.0;1.0;1.0;1.0;1.0;1.0;1.0 0
c p weight 82 1.0;1.0;1.0;1.0;1.0;1.0;1.0 0
c p weight -82 1.0;1.0;1.0;1.0;1.0;1.0;1.0 0
c p weight 83 1.0;1.0;1.0;1.0;1.0;1.0;1.0 0
c p weight -83 1.0;1.0;1.0;1.0;1.0;1.0;1.0 0
c p weight 84 1.0;1.0;1.0;1.0;1.0;1.0;1.0 0
c p weight -84 1.0;1.0;1.0;1.0;1.0;1.0;1.0 0
c p weight 85 1.0;1.0;1.0;1.0;1.0;1.0;1.0 0
c p weight -85 1.0;1.0;1.0;1.0;1.0;1.0;1.0 0
c p weight 86 1.0;1.0;1.0;1.0;1.0;1.0;1.0 0
c p weight -86 1.0;1.0;1.0;1.0;1.0;1.0;1.0 0
c p weight 87 1.0;1.0;1.0;1.0;1.0;1.0;1.0 0
c p weight -87 1.0;1.0;1.0;1.0;1.0;1.0;1.0 0
c p weight 88 1.0;1.0;1.0;1.0;1.0;1.0;1.0 0
c p weight -88 1.0;1.0;1.0;1.0;1.0;1.0;1.0 0
c p weight 89 1.0;1.0;1.0;1.0;1.0;1.0;1.0 0
c p weight -89 1.0;1.0;1.0;1.0;1.0;1.0;1.0 0
c p weight 90 1.0;1.0;1.0;1.0;1.0;1.0;1.0 0
c p weight -90 1.0;1.0;1.0;1.0;1.0;1.0;1.0 0
c p weight 91 1.0;1.0;1.0;1.0;1.0;1.0;1.0 0
c p weight -91 1.0;1.0;1.0;1.0;1.0;1.0;1.0 0
c p weight 92 1.0;1.0;1.0;1.0;1.0;1.0;1.0 0
c p weight -92 1.0;1.0;1.0;1.0;1.0;1.0;1.0 0
c p weight 93 1.0;1.0;1.0;1.0;1.0;1.0;1.0 0
c p weight -93 1.0;1.0;1.0;1.0;1.0;1.0;1.0 0
c p weight 94 1.0;1.0;1.0;1.0;1.0;1.0;1.0 0
c p weight -94 1.0;1.0;1.0;1.0;1.0;1.0;1.0 0
c p weight 95 1.0;1.0;1.0;1.0;1.0;1.0;1.0 0
c p weight -95 1.0;1.0;1.0;1.0;1.0;1.0;1.0 0
c p weight 96 1.0;1.0;1.0;1.0;1.0;1.0;1.0 0
c p weight -96 1.0;1.0;1.0;1.0;1.0;1.0;1.0 0
c p weight 97 1.0;1.0;1.0;1.0;1.0;1.0;1.0 0
c p weight -97 1.0;1.0;1.0;1.0;1.0;1.0;1.0 0
c p weight 98 1.0;1.0;1.0;1.0;1.0;1.0;1.0 0
c p weight -98 1.0;1.0;1.0;1.0;1.0;1.0;1.0 0
c p weight 99 1.0;1.0;1.0;1.0;1.0;1.0;1.0 0
c p weight -99 1.0;1.0;1.0;1.0;1.0;1.0;1.0 0
c p weight 100 1.0;1.0;1.0;1.0;1.0;1.0;1.0 0
c p weight -100 1.0;1.0;1.0;1.0;1.0;1.0;1.0 0
c p weight 101 1.0;1.0;1.0;1.0;1.0;1.0;1.0 0
c p weight -101 1.0;1.0;1.0;1.0;1.0;1.0;1.0 0
c p weight 102 1.0;1.0;1.0;1.0;1.0;1.0;1.0 0
c p weight -102 1.0;1.0;1.0;1.0;1.0;1.0;1.0 0
c p weight 103 1.0;1.0;1.0;1.0;1.0;1.0;1.0 0
c p weight -103 1.0;1.0;1.0;1.0;1.0;1.0;1.0 0
c p semirings aspmc.semirings.probabilistic 0
c p quantify 1 2 3 4 5 6 7 8 9 10 11 12 13 14 15 16 17 18 19 20 21 22 23 24 25 26 27 28 29 30 31 32 33 34 35 36 37 38 39 40 41 42 43 44 45 46 47 48 49 50 51 52 53 54 55 56 57 58 59 60 61 62 63 64 65 66 67 68 69 70 71 72 73 74 75 76 77 78 79 80 81 82 83 84 85 86 87 88 89 90 91 92 93 94 95 96 97 98 99 100 101 102 103 0
c p auxilliary 1 2 3 4 5 6 7 8 9 10 11 12 13 14 15 16 17 18 19 46 47 48 49 50 51 52 53 54 55 56 57 58 59 60 61 62 63 64 65 66 67 68 69 70 71 72 73 74 75 76 77 78 79 80 81 82 83 84 85 86 87 88 89 90 91 92 93 94 95 96 97 98 99 100 101 102 103 0
